
******************************************************************************
This program contains Ipopt, a library for large-scale nonlinear optimization.
 Ipopt is released as open source code under the Eclipse Public License (EPL).
         For more information visit https://github.com/coin-or/Ipopt
******************************************************************************

This is Ipopt version 3.14.19, running with linear solver MUMPS 5.8.1.

Number of nonzeros in equality constraint Jacobian...:     4389
Number of nonzeros in inequality constraint Jacobian.:        0
Number of nonzeros in Lagrangian Hessian.............:     1050

Total number of variables............................:     1287
                     variables with only lower bounds:        0
                variables with lower and upper bounds:      457
                     variables with only upper bounds:        0
Total number of equality constraints.................:     1274
Total number of inequality constraints...............:        0
        inequality constraints with only lower bounds:        0
   inequality constraints with lower and upper bounds:        0
        inequality constraints with only upper bounds:        0

iter    objective    inf_pr   inf_du lg(mu)  ||d||  lg(rg) alpha_du alpha_pr  ls
   0  9.8553446e+00 9.80e+01 6.45e-04  -1.0 0.00e+00    -  0.00e+00 0.00e+00   0
   1  9.8549764e+00 1.14e+00 4.23e+01  -1.0 9.71e+01    -  2.27e-02 1.00e+00h  1
   2  9.8546435e+00 8.66e-02 4.27e-01  -1.0 8.76e-01    -  9.54e-01 1.00e+00h  1
   3  9.8652231e+00 2.15e+00 2.58e+00  -1.0 4.53e+00    -  7.81e-01 1.00e+00f  1
   4  9.8658992e+00 1.86e+00 5.39e+00  -1.0 1.08e+00    -  1.00e+00 1.32e-01h  1
   5  9.8752812e+00 3.00e-01 8.43e-04  -1.0 9.46e-01    -  1.00e+00 1.00e+00f  1
   6  9.8643426e+00 4.48e-01 2.18e-03  -1.7 8.45e-01    -  1.00e+00 1.00e+00h  1
   7  9.8637299e+00 3.53e-02 8.24e-06  -1.7 6.31e-01    -  1.00e+00 1.00e+00h  1
   8  9.8631891e+00 8.81e-02 1.27e-04  -2.5 6.53e-01    -  1.00e+00 1.00e+00h  1
   9  9.8629186e+00 3.72e-04 2.96e-06  -2.5 1.26e-01    -  1.00e+00 1.00e+00h  1
iter    objective    inf_pr   inf_du lg(mu)  ||d||  lg(rg) alpha_du alpha_pr  ls
  10  9.8625185e+00 3.11e-03 2.39e-02  -3.8 1.54e-01    -  7.93e-01 1.00e+00h  1
  11  9.8552941e+00 1.63e-03 7.25e-03  -3.8 3.01e+00    -  3.66e-01 1.00e+00h  1
  12  9.8519232e+00 4.17e-04 5.54e-04  -3.8 1.62e+00    -  1.00e+00 1.00e+00h  1
  13  9.8481063e+00 5.46e-04 7.35e-04  -5.7 1.84e+00    -  7.74e-01 1.00e+00h  1
  14  9.8479334e+00 7.05e-05 4.16e-04  -5.7 1.30e-01    -  1.00e+00 8.74e-01h  1
  15  9.8479365e+00 5.35e-05 5.85e-02  -5.7 3.12e-03    -  1.00e+00 2.41e-01f  2
  16  9.8479392e+00 2.05e-09 1.10e-09  -5.7 1.71e-03    -  1.00e+00 1.00e+00h  1
  17  9.8479316e+00 2.03e-09 3.44e-02  -8.6 7.50e-03    -  1.00e+00 5.05e-01h  1
  18  9.8479310e+00 1.81e-10 4.27e-03  -8.6 2.84e-04    -  1.00e+00 9.16e-01f  1
  19  9.8479310e+00 1.12e-12 2.77e-15  -8.6 2.73e-06    -  1.00e+00 1.00e+00f  1

Number of Iterations....: 19

                                   (scaled)                 (unscaled)
Objective...............:   9.8479310161129128e+00    9.8479310161129128e+00
Dual infeasibility......:   2.7707870720039551e-15    2.7707870720039551e-15
Constraint violation....:   1.1182166304071968e-12    1.1182166304071968e-12
Variable bound violation:   0.0000000000000000e+00    0.0000000000000000e+00
Complementarity.........:   2.5075932043537351e-09    2.5075932043537351e-09
Overall NLP error.......:   2.5075932043537351e-09    2.5075932043537351e-09


Number of objective function evaluations             = 21
Number of objective gradient evaluations             = 20
Number of equality constraint evaluations            = 21
Number of inequality constraint evaluations          = 0
Number of equality constraint Jacobian evaluations   = 20
Number of inequality constraint Jacobian evaluations = 0
Number of Lagrangian Hessian evaluations             = 19
Total seconds in IPOPT                               = 0.083

EXIT: Optimal Solution Found.
